ilp_joint_2/output/sublimation_ilp.lp
Maximize
  0.0262812266782387 Z_83_1_0 + 0.4456767123716716 Z_83_1_1
   + 0.00789243641014958 Z_83_1_2 + 0.0097072605851175 Z_83_1_3
   + 0.00324797126713916 Z_114_1_0 + 0.00367095442665188 Z_114_1_1
   + 0.4258452405629412 Z_114_1_2 + 0.00661860287704244 Z_114_1_3
Subject To
 constraint1_831: Z_83_1_0 + Z_83_1_1 + Z_83_1_2 + Z_83_1_3 <= 1
 constraint1_1141: Z_114_1_0 + Z_114_1_1 + Z_114_1_2 + Z_114_1_3 <= 1
 constraint2_830: Z_83_1_0 <= 1
 constraint2_831: Z_83_1_1 <= 1
 constraint2_832: Z_83_1_2 <= 1
 constraint2_833: Z_83_1_3 <= 1
 constraint2_1140: Z_114_1_0 <= 1
 constraint2_1141: Z_114_1_1 <= 1
 constraint2_1142: Z_114_1_2 <= 1
 constraint2_1143: Z_114_1_3 <= 1
 constraint2_810: <= 1
 constraint2_811: <= 1
 constraint2_812: <= 1
 constraint2_813: <= 1
Bounds
Binaries
 Z_83_1_0 Z_83_1_1 Z_83_1_2 Z_83_1_3 Z_114_1_0 Z_114_1_1 Z_114_1_2
 Z_114_1_3
End
