ilp_joint_2/output/sublimation_ilp.mps
NAME sublimation_srl_ilp
* Max problem is converted into Min one
ROWS
 N  OBJ
 L  constraint1_831
 L  constraint1_1141
 L  constraint2_830
 L  constraint2_831
 L  constraint2_832
 L  constraint2_833
 L  constraint2_1140
 L  constraint2_1141
 L  constraint2_1142
 L  constraint2_1143
 L  constraint2_810
 L  constraint2_811
 L  constraint2_812
 L  constraint2_813
COLUMNS
    MARKER    'MARKER'                 'INTORG'
    Z_83_1_0  OBJ       -2.6281226678238734e-02
    Z_83_1_0  constraint1_831  1
    Z_83_1_0  constraint2_830  1
    Z_83_1_1  OBJ       -4.4567671237167161e-01
    Z_83_1_1  constraint1_831  1
    Z_83_1_1  constraint2_831  1
    Z_83_1_2  OBJ       -7.8924364101495836e-03
    Z_83_1_2  constraint1_831  1
    Z_83_1_2  constraint2_832  1
    Z_83_1_3  OBJ       -9.7072605851175001e-03
    Z_83_1_3  constraint1_831  1
    Z_83_1_3  constraint2_833  1
    Z_114_1_0  OBJ       -3.2479712671391603e-03
    Z_114_1_0  constraint1_1141  1
    Z_114_1_0  constraint2_1140  1
    Z_114_1_1  OBJ       -3.6709544266518845e-03
    Z_114_1_1  constraint1_1141  1
    Z_114_1_1  constraint2_1141  1
    Z_114_1_2  OBJ       -4.2584524056294115e-01
    Z_114_1_2  constraint1_1141  1
    Z_114_1_2  constraint2_1142  1
    Z_114_1_3  OBJ       -6.6186028770424364e-03
    Z_114_1_3  constraint1_1141  1
    Z_114_1_3  constraint2_1143  1
    MARKER    'MARKER'                 'INTEND'
RHS
    RHS1      constraint1_831  1
    RHS1      constraint1_1141  1
    RHS1      constraint2_830  1
    RHS1      constraint2_831  1
    RHS1      constraint2_832  1
    RHS1      constraint2_833  1
    RHS1      constraint2_1140  1
    RHS1      constraint2_1141  1
    RHS1      constraint2_1142  1
    RHS1      constraint2_1143  1
    RHS1      constraint2_810  1
    RHS1      constraint2_811  1
    RHS1      constraint2_812  1
    RHS1      constraint2_813  1
BOUNDS
 UP BND1      Z_83_1_0  1
 UP BND1      Z_83_1_1  1
 UP BND1      Z_83_1_2  1
 UP BND1      Z_83_1_3  1
 UP BND1      Z_114_1_0  1
 UP BND1      Z_114_1_1  1
 UP BND1      Z_114_1_2  1
 UP BND1      Z_114_1_3  1
ENDATA
