ilp_joint_2/output/sublimation_ilp.sol
# Solution for model sublimation_srl_ilp
# Objective value = 8.7152195293461276e-01
Z_83_1_0 0
Z_83_1_1 1
Z_83_1_2 0
Z_83_1_3 0
Z_114_1_0 0
Z_114_1_1 0
Z_114_1_2 1
Z_114_1_3 0
